100
32
24
13
13
21
10
3
24
18
29
5
4
6
6
20
5
25
15
10
11
27
1
9
17
14
21
1
10
3
11
15
10
3
10
1
8
18
1
19
5
24
4
17
2
25
28
8
18
1
2
2
1
4
11
2
2
17
1
16
2
2
2
17
6
7
26
4
4
13
3
3
2
8
18
1
19
1
2
7
7
2
32
2
2
19
3
11
1
4
10
2
5
2
1
1
2
17
3
2
2
2